;symbolic execution tree
(push)
(assert (le x0 java.lang.Object))
(check-sat)
(push)
(assert (le x1 java.lang.Object))
(check-sat)
(push)
(assert (le x2 java.lang.Object))
(check-sat)
(push)
(assert (le x3 java.lang.Object))
(check-sat)
(push)
(assert (le x4 java.lang.Object))
(check-sat)
(push)
(assert (le x5 java.lang.Object))
(check-sat)
(push)
(assert (le x6 java.lang.Object))
(check-sat)
(push)
(assert (le x7 java.lang.Object))
(check-sat)
(push)
(assert (le x8 java.lang.Object))
(check-sat)
(push)
(assert (le x9 java.lang.Object))
(check-sat)
(push)
(assert (le x10 java.lang.Object))
(check-sat)
(push)
(assert (le x11 java.lang.Object))
(check-sat)
(push)
(assert (le x12 java.lang.Object))
(check-sat)
(push)
(assert (le x13 java.lang.Object))
(check-sat)
(push)
(assert (le x14 java.lang.Object))
(check-sat)
(push)
(assert (le x15 java.lang.Object))
(check-sat)
(push)
(assert (le x2 weka.core.Instances))
(check-sat)
(push)
(assert (le x7 java.util.HashSet))
(check-sat)
(pop)
(push)
(assert (not (le x7 java.util.HashSet)))
(check-sat)
(push)
(assert (le x7 java.util.HashSet))
(check-sat)
(pop)
(push)
(assert (not (le x7 java.util.HashSet)))
(check-sat)
(pop)
(pop)
(push)
(assert (le x9 java.util.HashSet))
(check-sat)
(push)
(assert (= x4 java.lang.StringBuilder))
(check-sat)
(push)
(assert (le x6 weka.core.Instances))
(check-sat)
(pop)
(push)
(assert (not (le x6 weka.core.Instances)))
(check-sat)
(pop)
(push)
(assert (le x14 weka.core.Instances))
(check-sat)
(pop)
(push)
(assert (not (le x14 weka.core.Instances)))
(check-sat)
(pop)
(push)
(assert (le x3 weka.core.Instances))
(check-sat)
(pop)
(push)
(assert (not (le x3 weka.core.Instances)))
(check-sat)
(pop)
(pop)
(push)
(assert (not (= x4 java.lang.StringBuilder)))
(check-sat)
(pop)
(push)
(assert (le x6 weka.core.Queue_currencysign_QueueNode))
(check-sat)
(pop)
(push)
(assert (not (le x6 weka.core.Queue_currencysign_QueueNode)))
(check-sat)
(pop)
(push)
(assert (= x6 java.lang.String))
(check-sat)
(push)
(assert (= x11 java.lang.String))
(check-sat)
(push)
(assert (= x6 java.lang.String))
(check-sat)
(pop)
(push)
(assert (not (= x6 java.lang.String)))
(check-sat)
(pop)
(pop)
(push)
(assert (not (= x11 java.lang.String)))
(check-sat)
(pop)
(pop)
(push)
(assert (not (= x6 java.lang.String)))
(check-sat)
(pop)
(push)
(assert (le x2 weka.core.Instances))
(check-sat)
(pop)
(push)
(assert (not (le x2 weka.core.Instances)))
(check-sat)
(pop)
(push)
(assert (le x13 java.util.Vector))
(check-sat)
(pop)
(push)
(assert (not (le x13 java.util.Vector)))
(check-sat)
(pop)
(push)
(assert (le x7 weka.core.Instances))
(check-sat)
(push)
(assert (le x15 java.util.Properties))
(check-sat)
(push)
(assert (le x6 weka.core.Instance))
(check-sat)
(pop)
(push)
(assert (not (le x6 weka.core.Instance)))
(check-sat)
(pop)
(pop)
(push)
(assert (not (le x15 java.util.Properties)))
(check-sat)
(pop)
(pop)
(push)
(assert (not (le x7 weka.core.Instances)))
(check-sat)
(push)
(assert (= x8 java.lang.Boolean))
(check-sat)
(push)
(assert (le x6 java.util.Vector))
(check-sat)
(pop)
(push)
(assert (not (le x6 java.util.Vector)))
(check-sat)
(pop)
(pop)
(push)
(assert (not (= x8 java.lang.Boolean)))
(check-sat)
(pop)
(pop)
(pop)
(push)
(assert (not (le x9 java.util.HashSet)))
(check-sat)
(push)
(assert (le x4 weka.core.FastVector))
(check-sat)
(pop)
(push)
(assert (not (le x4 weka.core.FastVector)))
(check-sat)
(pop)
(pop)
(push)
(assert (le x2 weka.core.Instances))
(check-sat)
(pop)
(push)
(assert (not (le x2 weka.core.Instances)))
(check-sat)
(pop)
(push)
(assert (le x5 weka.core.Instances))
(check-sat)
(push)
(assert (= x15 java.lang.String))
(check-sat)
(pop)
(push)
(assert (not (= x15 java.lang.String)))
(check-sat)
(pop)
(push)
(assert (le x5 weka.core.Instances))
(check-sat)
(push)
(assert (le x8 weka.core.ProtectedProperties))
(check-sat)
(pop)
(push)
(assert (not (le x8 weka.core.ProtectedProperties)))
(check-sat)
(pop)
(push)
(assert (le x2 weka.core.Instances))
(check-sat)
(pop)
(push)
(assert (not (le x2 weka.core.Instances)))
(check-sat)
(pop)
(pop)
(push)
(assert (not (le x5 weka.core.Instances)))
(check-sat)
(pop)
(pop)
(push)
(assert (not (le x5 weka.core.Instances)))
(check-sat)
(push)
(assert (le x2 weka.core.Instances))
(check-sat)
(pop)
(push)
(assert (not (le x2 weka.core.Instances)))
(check-sat)
(pop)
(pop)
(push)
(assert (= x14 java.lang.String))
(check-sat)
(push)
(assert (= x15 java.lang.String))
(check-sat)
(push)
(assert (le x10 weka.core.Instances))
(check-sat)
(pop)
(push)
(assert (not (le x10 weka.core.Instances)))
(check-sat)
(pop)
(pop)
(push)
(assert (not (= x15 java.lang.String)))
(check-sat)
(pop)
(push)
(assert (le x5 java.util.Vector))
(check-sat)
(pop)
(push)
(assert (not (le x5 java.util.Vector)))
(check-sat)
(pop)
(push)
(assert (le x5 weka.core.Instances))
(check-sat)
(pop)
(push)
(assert (not (le x5 weka.core.Instances)))
(check-sat)
(push)
(assert (le x11 java.util.HashSet))
(check-sat)
(pop)
(push)
(assert (not (le x11 java.util.HashSet)))
(check-sat)
(pop)
(push)
(assert (le x3 weka.core.Instances))
(check-sat)
(pop)
(push)
(assert (not (le x3 weka.core.Instances)))
(check-sat)
(pop)
(pop)
(push)
(assert (= x15 java.lang.String))
(check-sat)
(pop)
(push)
(assert (not (= x15 java.lang.String)))
(check-sat)
(push)
(assert (le x7 weka.estimators.KernelEstimator))
(check-sat)
(pop)
(push)
(assert (not (le x7 weka.estimators.KernelEstimator)))
(check-sat)
(push)
(assert (= x9 java.lang.String))
(check-sat)
(pop)
(push)
(assert (not (= x9 java.lang.String)))
(check-sat)
(pop)
(push)
(assert (= x12 java.lang.String))
(check-sat)
(pop)
(push)
(assert (not (= x12 java.lang.String)))
(check-sat)
(pop)
(push)
(assert (= x14 java.lang.String))
(check-sat)
(pop)
(push)
(assert (not (= x14 java.lang.String)))
(check-sat)
(pop)
(pop)
(pop)
(push)
(assert (le x11 java.io.StreamTokenizer))
(check-sat)
(pop)
(push)
(assert (not (le x11 java.io.StreamTokenizer)))
(check-sat)
(pop)
(push)
(assert (le x1 weka.core.Instances))
(check-sat)
(pop)
(push)
(assert (not (le x1 weka.core.Instances)))
(check-sat)
(push)
(assert (le x10 weka.core.Instances))
(check-sat)
(push)
(assert (= x14 java.lang.String))
(check-sat)
(pop)
(push)
(assert (not (= x14 java.lang.String)))
(check-sat)
(pop)
(pop)
(push)
(assert (not (le x10 weka.core.Instances)))
(check-sat)
(pop)
(pop)
(push)
(assert (le x3 java.util.Properties))
(check-sat)
(pop)
(push)
(assert (not (le x3 java.util.Properties)))
(check-sat)
(pop)
(pop)
(push)
(assert (not (= x14 java.lang.String)))
(check-sat)
(push)
(assert (= x15 java.lang.Boolean))
(check-sat)
(push)
(assert (= x10 java.lang.String))
(check-sat)
(pop)
(push)
(assert (not (= x10 java.lang.String)))
(check-sat)
(pop)
(push)
(assert (le x5 weka.core.Instances))
(check-sat)
(pop)
(push)
(assert (not (le x5 weka.core.Instances)))
(check-sat)
(push)
(assert (le x12 weka.core.matrix.IntVector))
(check-sat)
(pop)
(push)
(assert (le x12 java.awt.ImageCapabilities))
(check-sat)
(pop)
(push)
(assert (le x12 java.text.DateFormat))
(check-sat)
(pop)
(push)
(assert (le x12 weka.core.matrix.DoubleVector))
(check-sat)
(pop)
(push)
(assert (= x12 java.awt.font.TextLayout))
(check-sat)
(pop)
(push)
(assert (le x12 java.awt.BufferCapabilities))
(check-sat)
(pop)
(push)
(assert (le x12 javax.swing.tree.DefaultMutableTreeNode))
(check-sat)
(pop)
(push)
(assert (le x12 java.util.AbstractMap))
(check-sat)
(pop)
(push)
(assert (le x12 java.awt.geom.Path2D))
(check-sat)
(pop)
(push)
(assert (le x12 java.util.Date))
(check-sat)
(pop)
(push)
(assert (le x12 java.awt.print.PageFormat))
(check-sat)
(pop)
(push)
(assert (le x12 java.util.zip.ZipEntry))
(check-sat)
(pop)
(push)
(assert (le x12 java.awt.geom.Point2D))
(check-sat)
(pop)
(push)
(assert (le x12 sun.java2d.loops.FontInfo))
(check-sat)
(pop)
(push)
(assert (le x12 java.lang.Enum))
(check-sat)
(pop)
(push)
(assert (le x12 java.text.NumberFormat))
(check-sat)
(pop)
(push)
(assert (le x12 java.util.Vector))
(check-sat)
(pop)
(push)
(assert (le x12 java.awt.GridBagConstraints))
(check-sat)
(pop)
(push)
(assert (le x12 weka.classifiers.trees.j48.ClassifierSplitModel))
(check-sat)
(pop)
(push)
(assert (not (le x12 weka.classifiers.trees.j48.Distribution)))
(check-sat)
(push)
(assert (not (le x12 java.awt.print.Paper)))
(check-sat)
(push)
(assert (not (le x12 java.awt.geom.RectangularShape)))
(check-sat)
(push)
(assert (not (le x12 weka.classifiers.trees.j48.ClassifierSplitModel)))
(check-sat)
(push)
(assert (not (le x12 java.awt.GridBagConstraints)))
(check-sat)
(push)
(assert (not (le x12 java.lang.Enum)))
(check-sat)
(push)
(assert (not (le x12 sun.java2d.loops.FontInfo)))
(check-sat)
(push)
(assert (not (le x12 java.util.zip.ZipEntry)))
(check-sat)
(push)
(assert (not (le x12 java.awt.geom.Point2D)))
(check-sat)
(push)
(assert (not (le x12 java.awt.geom.Path2D)))
(check-sat)
(push)
(assert (not (le x12 java.util.Date)))
(check-sat)
(push)
(assert (not (le x12 java.awt.print.PageFormat)))
(check-sat)
(push)
(assert (not (le x12 java.util.AbstractMap)))
(check-sat)
(push)
(assert (not (le x12 java.awt.BufferCapabilities)))
(check-sat)
(push)
(assert (not (le x12 javax.swing.tree.DefaultMutableTreeNode)))
(check-sat)
(push)
(assert (not (= x12 java.awt.font.TextLayout)))
(check-sat)
(push)
(assert (not (le x12 weka.core.matrix.DoubleVector)))
(check-sat)
(push)
(assert (not (le x12 java.awt.ImageCapabilities)))
(check-sat)
(push)
(assert (not (le x12 weka.core.matrix.IntVector)))
(check-sat)
(push)
(assert (not (= x12 java.util.Locale)))
(check-sat)
(push)
(assert (not (le x12 java.text.DecimalFormatSymbols)))
(check-sat)
(push)
(assert (not (= x12 java.awt.PageAttributes)))
(check-sat)
(push)
(assert (not (le x12 java.awt.geom.AffineTransform)))
(check-sat)
(push)
(assert (not (le x12 weka.core.Matrix)))
(check-sat)
(push)
(assert (not (le x12 java.awt.RenderingHints)))
(check-sat)
(push)
(assert (not (le x12 java.awt.Insets)))
(check-sat)
(push)
(assert (not (le x12 javax.swing.AbstractAction)))
(check-sat)
(push)
(assert (not (le x12 java.awt.datatransfer.DataFlavor)))
(check-sat)
(push)
(assert (le x12 java.lang.Object))
(check-sat)
(push)
(assert (not (le x12 weka.core.Capabilities)))
(check-sat)
(push)
(assert (not (le x12 java.awt.geom.Dimension2D)))
(check-sat)
(push)
(assert (not (= x12 java.awt.JobAttributes)))
(check-sat)
(push)
(assert (not (le x12 java.text.Format)))
(check-sat)
(push)
(assert (not (le x12 weka.core.matrix.Matrix)))
(check-sat)
(push)
(assert (not (le x12 java.awt.geom.Line2D)))
(check-sat)
(pop)
(pop)
(pop)
(pop)
(pop)
(pop)
(pop)
(pop)
(pop)
(pop)
(pop)
(pop)
(pop)
(pop)
(pop)
(pop)
(pop)
(pop)
(pop)
(pop)
(pop)
(pop)
(pop)
(pop)
(pop)
(pop)
(pop)
(pop)
(pop)
(pop)
(pop)
(pop)
(pop)
(pop)
(pop)
(push)
(assert (le x12 java.awt.geom.RectangularShape))
(check-sat)
(pop)
(push)
(assert (le x12 java.awt.print.Paper))
(check-sat)
(pop)
(push)
(assert (le x12 java.util.LinkedList))
(check-sat)
(pop)
(push)
(assert (le x12 weka.classifiers.trees.j48.Distribution))
(check-sat)
(pop)
(push)
(assert (le x12 java.text.Format))
(check-sat)
(push)
(assert (not (le x12 java.text.NumberFormat)))
(check-sat)
(push)
(assert (not (le x12 java.text.DateFormat)))
(check-sat)
(pop)
(pop)
(pop)
(push)
(assert (le x12 java.awt.geom.Line2D))
(check-sat)
(pop)
(push)
(assert (le x12 weka.core.matrix.Matrix))
(check-sat)
(pop)
(push)
(assert (le x12 java.util.Hashtable))
(check-sat)
(pop)
(push)
(assert (le x12 java.awt.geom.Dimension2D))
(check-sat)
(pop)
(push)
(assert (= x12 java.awt.JobAttributes))
(check-sat)
(pop)
(push)
(assert (le x12 weka.core.Capabilities))
(check-sat)
(pop)
(push)
(assert (le x12 java.awt.datatransfer.DataFlavor))
(check-sat)
(pop)
(push)
(assert (le x12 javax.swing.AbstractAction))
(check-sat)
(pop)
(push)
(assert (le x12 java.awt.Insets))
(check-sat)
(pop)
(push)
(assert (le x12 java.util.HashSet))
(check-sat)
(pop)
(push)
(assert (le x12 java.awt.RenderingHints))
(check-sat)
(pop)
(push)
(assert (le x12 weka.core.Matrix))
(check-sat)
(pop)
(push)
(assert (le x12 java.util.ArrayList))
(check-sat)
(pop)
(push)
(assert (= x12 sun.java2d.SunGraphics2D))
(check-sat)
(pop)
(push)
(assert (le x12 java.awt.geom.AffineTransform))
(check-sat)
(pop)
(push)
(assert (= x12 java.awt.PageAttributes))
(check-sat)
(pop)
(push)
(assert (le x12 java.text.DecimalFormatSymbols))
(check-sat)
(pop)
(push)
(assert (= x12 java.util.Locale))
(check-sat)
(pop)
(pop)
(pop)
(push)
(assert (not (= x15 java.lang.Boolean)))
(check-sat)
(pop)
(push)
(assert (le x1 java.util.Vector))
(check-sat)
(pop)
(push)
(assert (not (le x1 java.util.Vector)))
(check-sat)
(push)
(assert (le x4 java.util.Vector))
(check-sat)
(pop)
(push)
(assert (not (le x4 java.util.Vector)))
(check-sat)
(push)
(assert (= x14 java.lang.String))
(check-sat)
(pop)
(push)
(assert (not (= x14 java.lang.String)))
(check-sat)
(pop)
(pop)
(push)
(assert (le x3 weka.core.Instance))
(check-sat)
(push)
(assert (= x11 java.lang.String))
(check-sat)
(pop)
(push)
(assert (not (= x11 java.lang.String)))
(check-sat)
(pop)
(pop)
(push)
(assert (not (le x3 weka.core.Instance)))
(check-sat)
(push)
(assert (le x1 java.util.Vector))
(check-sat)
(pop)
(push)
(assert (not (le x1 java.util.Vector)))
(check-sat)
(pop)
(pop)
(pop)
(pop)
(push)
(assert (le x3 weka.core.Queue_currencysign_QueueNode))
(check-sat)
(push)
(assert (le x4 java.util.Vector))
(check-sat)
(pop)
(push)
(assert (not (le x4 java.util.Vector)))
(check-sat)
(pop)
(push)
(assert (le x0 weka.core.Instance))
(check-sat)
(pop)
(push)
(assert (not (le x0 weka.core.Instance)))
(check-sat)
(pop)
(push)
(assert (le x4 java.util.Vector))
(check-sat)
(pop)
(push)
(assert (not (le x4 java.util.Vector)))
(check-sat)
(pop)
(pop)
(push)
(assert (not (le x3 weka.core.Queue_currencysign_QueueNode)))
(check-sat)
(push)
(assert (le x10 weka.core.Instances))
(check-sat)
(push)
(assert (le x1 weka.core.Instances))
(check-sat)
(pop)
(push)
(assert (not (le x1 weka.core.Instances)))
(check-sat)
(pop)
(pop)
(push)
(assert (not (le x10 weka.core.Instances)))
(check-sat)
(pop)
(push)
(assert (= x11 java.lang.Boolean))
(check-sat)
(pop)
(push)
(assert (not (= x11 java.lang.Boolean)))
(check-sat)
(pop)
(pop)
(push)
(assert (= x14 java.lang.String))
(check-sat)
(pop)
(push)
(assert (not (= x14 java.lang.String)))
(check-sat)
(pop)
(pop)
(push)
(assert (not (le x2 weka.core.Instances)))
(check-sat)
(pop)
